# Solution for model r5_t36_m0_8 Batch Number: 7
# Finished Task: 34 / 36
# Makespan: 726.0, Total Distance: 690.0, Total Time: 20.0633
# R O S F Batch
0 0 28 0.0 0.0 -1
1 1 11 0.0 0.0 -1
2 2 26 0.0 0.0 -1
3 3 22 0.0 0.0 -1
4 4 5 0.0 0.0 -1
5 4 36 82.0 116.0 0
6 4 14 627.0 650.0 3
7 0 31 251.0 273.0 0
8 4 35 203.0 235.0 0
9 1 21 386.0 422.0 0
10 4 40 537.0 564.0 2
11 1 9 316.0 354.0 0
12 2 27 305.0 325.0 0
13 4 10 477.0 498.0 1
14 4 -1 701.0 726.0 5
15 1 18 490.0 514.0 2
16 3 -1 664.0 701.0 5
17 2 38 615.0 647.0 6
18 1 -1 643.0 664.0 5
19 3 16 516.0 552.0 4
20 3 19 456.0 479.0 3
21 1 15 439.0 471.0 1
22 3 20 389.0 409.0 0
23 2 32 180.0 208.0 0
24 4 30 370.0 400.0 0
25 -1 -1 -1.0 -1.0 6
26 2 23 158.0 180.0 0
27 2 37 440.0 462.0 4
28 0 7 85.0 108.0 0
29 2 12 271.0 305.0 0
30 4 13 408.0 440.0 0
31 0 33 345.0 367.0 1
32 2 29 220.0 252.0 0
33 0 -1 367.0 397.0 2
34 4 24 303.0 341.0 0
35 4 34 235.0 264.0 0
36 4 8 116.0 137.0 0
37 2 17 552.0 584.0 4
38 2 -1 692.0 726.0 6
39 -1 -1 -1.0 -1.0 5
40 4 6 564.0 593.0 3
